c 1 A1
c 2 A2
c 3 C3
c 4 C4
c 5 C6
c 6 C8
c 7 C9
c 8 A5
c 9 C10
c 10 C11
c 11 C12
c 12 C13
c 13 C14
c 14 A7
c 15 C15
c 16 C16
p cnf 16 18
1 0
1 -2 0
2 -3 0
2 -4 0
2 -8 0
2 -5 0
2 -14 0
2 -6 0
2 -7 0
8 -9 0
8 -10 0
8 -11 0
8 -12 0
8 -13 0
9 10 11 12 13 -8 0
14 -15 0
14 -16 0
-8 -6 0

